p cnf 915
-17 -283
-18 -286
-19 -289
-20 -292
-21 -295
-22 -298
-23 -301
-24 -304
-25 -307
-26 -310
-27 -313
-28 -316
-29 -319
-30 -322
-31 -325
-32 -328
-33 329
-34 330
-35 331
-36 332
-37 -18
-37 -19
18 19 37
-38 -20
-38 -21
20 21 38
-39 -22
-39 -23
22 23 39
-40 -24
-40 -25
24 25 40
-41 -26
-41 -27
26 27 41
-42 -28
-42 -29
28 29 42
-43 -30
-43 -31
30 31 43
-44 -32
-44 -33
32 33 44
-45 -34
-45 -35
34 35 45
-46 37
-46 38
-37 -38 46
-47 39
-47 40
-39 -40 47
-48 41
-48 42
-41 -42 48
-49 43
-49 44
-43 -44 49
-50 -36
-50 45
36 -45 50
-51 46
-51 47
-46 -47 51
-52 48
-52 49
-48 -49 52
-53 51
-53 52
-51 -52 53
-54 50
-54 53
-50 -53 54
-55 -17
-55 18
17 -18 55
-56 17
-56 -18
-17 18 56
-57 -55
-57 -56
55 56 57
-58 17
-58 18
-17 -18 58
-59 -17
-59 -57
17 57 59
-60 17
-60 57
-17 -57 60
-61 -59
-61 -60
59 60 61
-62 17
-62 -57
-17 57 62
-63 -58
-63 -62
58 62 63
-64 -18
-64 19
18 -19 64
-65 18
-65 -19
-18 19 65
-66 -64
-66 -65
64 65 66
-67 18
-67 19
-18 -19 67
-68 63
-68 -66
-63 66 68
-69 -63
-69 66
63 -66 69
-70 -68
-70 -69
68 69 70
-71 -63
-71 -66
63 66 71
-72 -67
-72 -71
67 71 72
-73 -19
-73 20
19 -20 73
-74 19
-74 -20
-19 20 74
-75 -73
-75 -74
73 74 75
-76 19
-76 20
-19 -20 76
-77 72
-77 -75
-72 75 77
-78 -72
-78 75
72 -75 78
-79 -77
-79 -78
77 78 79
-80 -72
-80 -75
72 75 80
-81 -76
-81 -80
76 80 81
-82 -20
-82 21
20 -21 82
-83 20
-83 -21
-20 21 83
-84 -82
-84 -83
82 83 84
-85 20
-85 21
-20 -21 85
-86 81
-86 -84
-81 84 86
-87 -81
-87 84
81 -84 87
-88 -86
-88 -87
86 87 88
-89 -81
-89 -84
81 84 89
-90 -85
-90 -89
85 89 90
-91 -21
-91 22
21 -22 91
-92 21
-92 -22
-21 22 92
-93 -91
-93 -92
91 92 93
-94 21
-94 22
-21 -22 94
-95 90
-95 -93
-90 93 95
-96 -90
-96 93
90 -93 96
-97 -95
-97 -96
95 96 97
-98 -90
-98 -93
90 93 98
-99 -94
-99 -98
94 98 99
-100 -22
-100 23
22 -23 100
-101 22
-101 -23
-22 23 101
-102 -100
-102 -101
100 101 102
-103 22
-103 23
-22 -23 103
-104 99
-104 -102
-99 102 104
-105 -99
-105 102
99 -102 105
-106 -104
-106 -105
104 105 106
-107 -99
-107 -102
99 102 107
-108 -103
-108 -107
103 107 108
-109 -23
-109 24
23 -24 109
-110 23
-110 -24
-23 24 110
-111 -109
-111 -110
109 110 111
-112 23
-112 24
-23 -24 112
-113 108
-113 -111
-108 111 113
-114 -108
-114 111
108 -111 114
-115 -113
-115 -114
113 114 115
-116 -108
-116 -111
108 111 116
-117 -112
-117 -116
112 116 117
-118 -24
-118 25
24 -25 118
-119 24
-119 -25
-24 25 119
-120 -118
-120 -119
118 119 120
-121 24
-121 25
-24 -25 121
-122 117
-122 -120
-117 120 122
-123 -117
-123 120
117 -120 123
-124 -122
-124 -123
122 123 124
-125 -117
-125 -120
117 120 125
-126 -121
-126 -125
121 125 126
-127 -25
-127 26
25 -26 127
-128 25
-128 -26
-25 26 128
-129 -127
-129 -128
127 128 129
-130 25
-130 26
-25 -26 130
-131 126
-131 -129
-126 129 131
-132 -126
-132 129
126 -129 132
-133 -131
-133 -132
131 132 133
-134 -126
-134 -129
126 129 134
-135 -130
-135 -134
130 134 135
-136 -26
-136 27
26 -27 136
-137 26
-137 -27
-26 27 137
-138 -136
-138 -137
136 137 138
-139 26
-139 27
-26 -27 139
-140 135
-140 -138
-135 138 140
-141 -135
-141 138
135 -138 141
-142 -140
-142 -141
140 141 142
-143 -135
-143 -138
135 138 143
-144 -139
-144 -143
139 143 144
-145 -27
-145 28
27 -28 145
-146 27
-146 -28
-27 28 146
-147 -145
-147 -146
145 146 147
-148 27
-148 28
-27 -28 148
-149 144
-149 -147
-144 147 149
-150 -144
-150 147
144 -147 150
-151 -149
-151 -150
149 150 151
-152 -144
-152 -147
144 147 152
-153 -148
-153 -152
148 152 153
-154 -28
-154 29
28 -29 154
-155 28
-155 -29
-28 29 155
-156 -154
-156 -155
154 155 156
-157 28
-157 29
-28 -29 157
-158 153
-158 -156
-153 156 158
-159 -153
-159 156
153 -156 159
-160 -158
-160 -159
158 159 160
-161 -153
-161 -156
153 156 161
-162 -157
-162 -161
157 161 162
-163 -29
-163 30
29 -30 163
-164 29
-164 -30
-29 30 164
-165 -163
-165 -164
163 164 165
-166 29
-166 30
-29 -30 166
-167 162
-167 -165
-162 165 167
-168 -162
-168 165
162 -165 168
-169 -167
-169 -168
167 168 169
-170 -162
-170 -165
162 165 170
-171 -166
-171 -170
166 170 171
-172 -30
-172 31
30 -31 172
-173 30
-173 -31
-30 31 173
-174 -172
-174 -173
172 173 174
-175 30
-175 31
-30 -31 175
-176 171
-176 -174
-171 174 176
-177 -171
-177 174
171 -174 177
-178 -176
-178 -177
176 177 178
-179 -171
-179 -174
171 174 179
-180 -175
-180 -179
175 179 180
-181 -31
-181 32
31 -32 181
-182 31
-182 -32
-31 32 182
-183 -181
-183 -182
181 182 183
-184 31
-184 32
-31 -32 184
-185 180
-185 -183
-180 183 185
-186 -180
-186 183
180 -183 186
-187 -185
-187 -186
185 186 187
-188 -180
-188 -183
180 183 188
-189 -184
-189 -188
184 188 189
-190 -32
-190 33
32 -33 190
-191 32
-191 -33
-32 33 191
-192 -190
-192 -191
190 191 192
-193 32
-193 33
-32 -33 193
-194 189
-194 -192
-189 192 194
-195 -189
-195 192
189 -192 195
-196 -194
-196 -195
194 195 196
-197 -189
-197 -192
189 192 197
-198 -193
-198 -197
193 197 198
-199 -33
-199 34
33 -34 199
-200 33
-200 -34
-33 34 200
-201 -199
-201 -200
199 200 201
-202 33
-202 34
-33 -34 202
-203 198
-203 -201
-198 201 203
-204 -198
-204 201
198 -201 204
-205 -203
-205 -204
203 204 205
-206 -198
-206 -201
198 201 206
-207 -202
-207 -206
202 206 207
-208 -34
-208 35
34 -35 208
-209 34
-209 -35
-34 35 209
-210 -208
-210 -209
208 209 210
-211 34
-211 35
-34 -35 211
-212 207
-212 -210
-207 210 212
-213 -207
-213 210
207 -210 213
-214 -212
-214 -213
212 213 214
-215 -207
-215 -210
207 210 215
-216 -211
-216 -215
211 215 216
-217 -35
-217 36
35 -36 217
-218 35
-218 -36
-35 36 218
-219 -217
-219 -218
217 218 219
-220 35
-220 36
-35 -36 220
-221 216
-221 -219
-216 219 221
-222 -216
-222 219
216 -219 222
-223 -221
-223 -222
221 222 223
-224 -216
-224 -219
216 219 224
-225 -220
-225 -224
220 224 225
-226 17
-226 -61
-17 61 226
-227 -17
-227 19
17 -19 227
-228 -226
-228 -227
226 227 228
-229 17
-229 -70
-17 70 229
-230 -17
-230 20
17 -20 230
-231 -229
-231 -230
229 230 231
-232 17
-232 -79
-17 79 232
-233 -17
-233 21
17 -21 233
-234 -232
-234 -233
232 233 234
-235 17
-235 -88
-17 88 235
-236 -17
-236 22
17 -22 236
-237 -235
-237 -236
235 236 237
-238 17
-238 -97
-17 97 238
-239 -17
-239 23
17 -23 239
-240 -238
-240 -239
238 239 240
-241 17
-241 -106
-17 106 241
-242 -17
-242 24
17 -24 242
-243 -241
-243 -242
241 242 243
-244 17
-244 -115
-17 115 244
-245 -17
-245 25
17 -25 245
-246 -244
-246 -245
244 245 246
-247 17
-247 -124
-17 124 247
-248 -17
-248 26
17 -26 248
-249 -247
-249 -248
247 248 249
-250 17
-250 -133
-17 133 250
-251 -17
-251 27
17 -27 251
-252 -250
-252 -251
250 251 252
-253 17
-253 -142
-17 142 253
-254 -17
-254 28
17 -28 254
-255 -253
-255 -254
253 254 255
-256 17
-256 -151
-17 151 256
-257 -17
-257 29
17 -29 257
-258 -256
-258 -257
256 257 258
-259 17
-259 -160
-17 160 259
-260 -17
-260 30
17 -30 260
-261 -259
-261 -260
259 260 261
-262 17
-262 -169
-17 169 262
-263 -17
-263 31
17 -31 263
-264 -262
-264 -263
262 263 264
-265 17
-265 -178
-17 178 265
-266 -17
-266 32
17 -32 266
-267 -265
-267 -266
265 266 267
-268 17
-268 -187
-17 187 268
-269 -17
-269 33
17 -33 269
-270 -268
-270 -269
268 269 270
-271 17
-271 -196
-17 196 271
-272 -17
-272 34
17 -34 272
-273 -271
-273 -272
271 272 273
-274 17
-274 -205
-17 205 274
-275 -17
-275 35
17 -35 275
-276 -274
-276 -275
274 275 276
-277 17
-277 -214
-17 214 277
-278 -17
-278 36
17 -36 278
-279 -277
-279 -278
277 278 279
-280 17
-280 -223
-17 223 280
-281 1
-281 54
-1 -54 281
-282 -54
-282 55
54 -55 282
-283 -281
-283 -282
281 282 283
-284 2
-284 54
-2 -54 284
-285 -54
-285 -228
54 228 285
-286 -284
-286 -285
284 285 286
-287 3
-287 54
-3 -54 287
-288 -54
-288 -231
54 231 288
-289 -287
-289 -288
287 288 289
-290 4
-290 54
-4 -54 290
-291 -54
-291 -234
54 234 291
-292 -290
-292 -291
290 291 292
-293 5
-293 54
-5 -54 293
-294 -54
-294 -237
54 237 294
-295 -293
-295 -294
293 294 295
-296 6
-296 54
-6 -54 296
-297 -54
-297 -240
54 240 297
-298 -296
-298 -297
296 297 298
-299 7
-299 54
-7 -54 299
-300 -54
-300 -243
54 243 300
-301 -299
-301 -300
299 300 301
-302 8
-302 54
-8 -54 302
-303 -54
-303 -246
54 246 303
-304 -302
-304 -303
302 303 304
-305 9
-305 54
-9 -54 305
-306 -54
-306 -249
54 249 306
-307 -305
-307 -306
305 306 307
-308 10
-308 54
-10 -54 308
-309 -54
-309 -252
54 252 309
-310 -308
-310 -309
308 309 310
-311 11
-311 54
-11 -54 311
-312 -54
-312 -255
54 255 312
-313 -311
-313 -312
311 312 313
-314 12
-314 54
-12 -54 314
-315 -54
-315 -258
54 258 315
-316 -314
-316 -315
314 315 316
-317 13
-317 54
-13 -54 317
-318 -54
-318 -261
54 261 318
-319 -317
-319 -318
317 318 319
-320 14
-320 54
-14 -54 320
-321 -54
-321 -264
54 264 321
-322 -320
-322 -321
320 321 322
-323 15
-323 54
-15 -54 323
-324 -54
-324 -267
54 267 324
-325 -323
-325 -324
323 324 325
-326 16
-326 54
-16 -54 326
-327 -54
-327 -270
54 270 327
-328 -326
-328 -327
326 327 328
-329 -54
-329 -273
54 273 329
-330 -54
-330 -276
54 276 330
-331 -54
-331 -279
54 279 331
-332 -54
-332 280
54 -280 332
-333 -36
-333 225
36 -225 333
-334 17
-334 -333
-17 333 334
334
